c ---- [ banner ] ------------------------------------------------------------
c
c Kissat SAT Solver
c 
c Copyright (c) 2021-2024 Armin Biere University of Freiburg
c Copyright (c) 2019-2021 Armin Biere Johannes Kepler University Linz
c 
c Version 4.0.4 8af8e56f174b778aef3aa45af9f739b2a5f492c2
c gcc (Debian 14.2.0-19) 14.2.0 -W -Wall -O3 -DNDEBUG
c Mon Mar 30 04:06:14 UTC 2026 Linux modal 4.4.0 x86_64
c
c ---- [ parsing ] -----------------------------------------------------------
c
c opened and reading DIMACS file:
c
c   s67_17.cnf
c
c parsed 'p cnf 50388 596904' header
